Route #1: 6 41 2 5 46 54 21 25
Route #2: 58 29 36 27 47 18 44
Route #3: 15 20 8 53 40 19
Route #4: 50 12 26 43 32 30 42
Route #5: 51 28 60 39 13 55 14
Route #6: 3 24 10 59 45 37 49
Route #7: 7 4 22 57 52 31 17
Route #8: 38 56 35 9
Route #9: 23 33 11 1 16 48 34
cost 1398.0079345703125